p ds 20 5
1 6
1 8
1 9
1 13
1 14
1 16
1 17
2 5
2 7
2 9
2 10
2 12
2 15
2 20
3 4
3 5
3 6
3 13
3 15
3 20
4 6
4 8
4 10
4 12
4 17
4 18
5 6
5 14
5 18
6 8
6 9
6 11
6 13
6 14
7 8
7 9
7 14
7 16
7 18
7 19
8 11
8 12
8 14
8 15
8 17
8 19
8 20
9 14
9 15
9 16
9 17
9 18
9 19
10 14
10 15
10 16
10 17
10 19
10 20
11 13
11 14
11 18
12 14
12 15
12 18
12 19
12 20
13 15
13 16
13 17
13 18
13 19
14 16
14 17
14 19
15 17
15 18
15 20
16 18
16 20
18 19
18 20
